Traveling Salesman Problem/TSP_generados/Aleatorio1621103504_15.tsp
NAME: Aleatorio1621103504_15.tsp
COMMENT: Randomly generated scenario
TYPE: TSP
DIMENSION: 15
EDGE_WEIGHT_TYPE: ATT
NODE_COORD_SECTION
1 24.0 22.66
2 17.65 20.57
3 31.96 41.09
4 28.56 14.02
5 33.33 37.89
6 6.96 40.91
7 37.35 10.98
8 28.17 44.23
9 10.01 37.52
10 41.85 15.07
11 49.99 12.16
12 14.19 15.96
13 28.0 44.7
14 2.85 5.09
15 47.8 10.77
