Traveling Salesman Problem/TSP_generados/Aleatorio1621103504_15.opt.tour
NAME: Aleatorio1621103504_15.opt.tour
COMMENT: Optimal solution for Aleatorio1621103504_15 (161.32917111906045)
TYPE: TOUR
DIMENSION: 15
TOUR_SECTION
1 2 12 14 9 6 13 8 3 5 10 11 15 7 4
-1
EOF
